CapLotSizing_PM/src/Instancias/TCLSLT/6i12p4m/NBB03.OUT
 CG ITER, OVMR, OVMRUB =           1   16831.1171875   15617.4990234
 CG ITER, OVMR, OVMRUB =           2   15617.5009766   15617.4990234
 CG ITER, OVMR, OVMRUB =           3   15617.5009766   15617.4990234
 CG ITER, OVMR, OVMRUB =           4   15614.9560547   15617.4990234
 CG ITER, OVMR, OVMRUB =           5   15617.4990234   15617.4990234
 CG ITER, OVMR, OVMRUB =           6   15617.4980469   15617.4990234
 CG ITER, OVMR, OVMRUB =           7   15617.4990234   15617.4990234
 CG ITER, OVMR, OVMRUB =           8   14968.5537109   15617.4990234
 CG ITER, OVMR, OVMRUB =           9   13657.7685547   15617.4990234
 CG ITER, OVMR, OVMRUB =          10   13391.7021484   15617.4990234
 CG ITER, OVMR, OVMRUB =          11   13193.0224609   15617.4990234
 CG ITER, OVMR, OVMRUB =          12   13212.3330078   15617.4990234
 CG ITER, OVMR, OVMRUB =          13   13246.0390625   15617.4990234
 CG ITER, OVMR, OVMRUB =          14   13284.3916016   15477.1455078
 CG ITER, OVMR, OVMRUB =          15   13316.1298828   15477.1455078
 CG ITER, OVMR, OVMRUB =          16   13355.5585938   15477.1455078
 CG ITER, OVMR, OVMRUB =          17   13393.7451172   15437.7138672
 CG ITER, OVMR, OVMRUB =          18   13433.1923828   15437.7138672
 CG ITER, OVMR, OVMRUB =          19   13469.7597656   15437.7138672
 CG ITER, OVMR, OVMRUB =          20   13512.0810547   15437.7138672
 CG ITER, OVMR, OVMRUB =          21   13547.0654297   15437.7138672
 CG ITER, OVMR, OVMRUB =          22   13586.1455078   15437.7138672
 CG ITER, OVMR, OVMRUB =          23   13617.2685547   15437.7138672
 CG ITER, OVMR, OVMRUB =          24   13654.5957031   15437.7138672
 CG ITER, OVMR, OVMRUB =          25   13687.7724609   15437.7138672
 CG ITER, OVMR, OVMRUB =          26   13716.3066406   15437.7138672
 CG ITER, OVMR, OVMRUB =          27   13750.7548828   15437.7138672
 CG ITER, OVMR, OVMRUB =          28   13773.1611328   15057.3535156
 CG ITER, OVMR, OVMRUB =          29   13794.7675781   15057.3535156
 CG ITER, OVMR, OVMRUB =          30   13817.0771484   15057.3535156
 CG ITER, OVMR, OVMRUB =          31   13842.7822266   15057.3535156
 CG ITER, OVMR, OVMRUB =          32   13863.7265625   15057.3535156
 CG ITER, OVMR, OVMRUB =          33   13886.0302734   15057.3535156
 CG ITER, OVMR, OVMRUB =          34   13907.3437500   15057.3535156
 CG ITER, OVMR, OVMRUB =          35   13923.0791016   15057.3535156
 CG ITER, OVMR, OVMRUB =          36   13941.9619141   15057.3535156
 CG ITER, OVMR, OVMRUB =          37   13888.6171875   15057.3535156
 CG ITER, OVMR, OVMRUB =          38   13926.7841797   15057.3535156
 CG ITER, OVMR, OVMRUB =          39   13958.9599609   15057.3535156
 CG ITER, OVMR, OVMRUB =          40   13982.9121094   15057.3535156
 CG ITER, OVMR, OVMRUB =          41   14009.1884766   15057.3535156
 CG ITER, OVMR, OVMRUB =          42   14032.5458984   15057.3535156
 CG ITER, OVMR, OVMRUB =          43   14049.6699219   15057.3535156
 CG ITER, OVMR, OVMRUB =          44   14038.8642578   15057.3535156
 CG ITER, OVMR, OVMRUB =          45   14061.9570312   15057.3535156
 CG ITER, OVMR, OVMRUB =          46   14083.5703125   15057.3535156
 CG ITER, OVMR, OVMRUB =          47   14104.0751953   15057.3535156
 CG ITER, OVMR, OVMRUB =          48   14124.7548828   15057.3535156
 CG ITER, OVMR, OVMRUB =          49   14141.5068359   15057.3535156
 CG ITER, OVMR, OVMRUB =          50   14169.8876953   15057.3535156
 CG ITER, OVMR, OVMRUB =          51   14180.6552734   15057.3535156
 CG ITER, OVMR, OVMRUB =          52   14199.4257812   14979.3486328
 CG ITER, OVMR, OVMRUB =          53   14211.4726562   14792.2460938
 CG ITER, OVMR, OVMRUB =          54   14220.0195312   14792.2460938
 CG ITER, OVMR, OVMRUB =          55   14225.4208984   14792.2460938
 CG ITER, OVMR, OVMRUB =          56   14216.6826172   14792.2460938
 CG ITER, OVMR, OVMRUB =          57   14221.2529297   14792.2460938
 CG ITER, OVMR, OVMRUB =          58   14228.6250000   14792.2460938
 CG ITER, OVMR, OVMRUB =          59   14232.2949219   14792.2460938
 CG ITER, OVMR, OVMRUB =          60   14240.1386719   14792.2460938
 CG ITER, OVMR, OVMRUB =          61   14244.7861328   14792.2460938
 CG ITER, OVMR, OVMRUB =          62   14251.2392578   14792.2460938
 CG ITER, OVMR, OVMRUB =          63   14255.6083984   14792.2460938
 CG ITER, OVMR, OVMRUB =          64   14260.3378906   14792.2460938
 CG ITER, OVMR, OVMRUB =          65   14260.6669922   14792.2460938
 CG ITER, OVMR, OVMRUB =          66   14262.6660156   14792.2460938
 CG ITER, OVMR, OVMRUB =          67   14263.5058594   14792.2460938
 CG ITER, OVMR, OVMRUB =          68   14265.2470703   14792.2460938
 CG ITER, OVMR, OVMRUB =          69   14266.9199219   14792.2460938
 CG ITER, OVMR, OVMRUB =          70   14268.1328125   14792.2460938
 CG ITER, OVMR, OVMRUB =          71   14269.5595703   14792.2460938
 CG ITER, OVMR, OVMRUB =          72   14269.3115234   14732.7353516
 CG ITER, OVMR, OVMRUB =          73   14269.3115234   14732.7353516
OVLB =   14269.3115234 OVLUB =   14732.7353516 TIME =       9.8199997
